NAME : problems/40-tsp/instance-44.tsp
COMMENT : No Comment
TYPE : TSP
DIMENSION: 40
EDGE_WEIGHT_TYPE : EUC_2D
NODE_COORD_SECTION
1 6933 14 
2 485 4265 
3 7946 4241 
4 2340 123 
5 3023 2504 
6 4064 6111 
7 1510 6619 
8 4545 8894 
9 1676 3542 
10 4740 1406 
11 1145 6583 
12 7209 4634 
13 4063 4477 
14 124 7748 
15 6380 4191 
16 661 6474 
17 6140 9275 
18 2310 44 
19 7718 8465 
20 5738 5088 
21 7701 5940 
22 2743 2501 
23 6220 9345 
24 9217 6316 
25 7690 5005 
26 4302 4018 
27 9216 5823 
28 5076 8133 
29 8192 1347 
30 6236 3705 
31 4077 6166 
32 5330 301 
33 713 6644 
34 5354 7274 
35 2182 3402 
36 1248 7175 
37 7685 576 
38 7308 3312 
39 2608 3544 
40 4399 7408 
EOF
